N = 3;
Capacity = 10;
ItemsPerCustomer = [3, 7, 6];
maxItemsPerCustomer = 7;
binCapacity = 50;
SizesOfItems = [|
  33, 17, 14, 0, 0, 0, 0
| 38, 33, 31, 28, 27, 13, 12
| 23, 17, 16, 12, 11, 10, 0
|];
Distance = [|
  0, 52, 45, 49
| 52, 0, 7, 13
| 45, 7, 0, 13
| 49, 13, 13, 0
|];
